letting n be 12
letting exclusions be [
]
letting assignments be [
[7, 5, 1, 2]
,
[1, 1, 2, 7]
,
[10, 3, 1, 8]
,
[3, 4, 2, 5]
,
[4, 6, 2, 11]
,
[7, 4, 2, 4]
,
[5, 6, 2, 12]
,
[2, 4, 2, 12]
,
[3, 1, 1, 3]
,
[11, 5, 1, 1]
]
